unsat
(:cnf-encoding-aux-vars   152
 :eliminated-applications 1
 :eliminated-vars         146
 :max-memory              19.47
 :memory                  18.70
 :nlsat-conflicts         2
 :nlsat-decisions         3
 :nlsat-learned-added     1
 :nlsat-propagations      8
 :num-allocs              25728
 :rlimit-count            90636
 :time                    0.03
 :total-time              0.04)
